8373
1 1 0 0 0 0 0 0 1 1 0 0 1 0 0 0 0 0 0 0 0 1 0 1 0 0 0 0 1 0 
12 23 23 21 23 21 9 21 1 1 23 23 21 9 12 23 12 8 12 28 0 9 8 21 8 9 28 0 28 28 23 23 28 9 23 9 0 12 9 12 12 21 1 23 23 23 23 8 0 21 23 0 1 8 8 0 0 8 1 28 12 23 28 28 28 23 1 28 8 23 
